c --- [ banner ] -------------------------------------------------------------
c 
c CaDiCaL Radically Simplified CDCL SAT Solver
c Copyright (c) 2016-2021 A. Biere, M. Fleury, N. Froleyks
c 
c Version 1.5.2 9c38a080b32c28d805e8e6ca21849856b0cda605
c g++ (Ubuntu 7.5.0-3ubuntu1~18.04) 7.5.0 -Wall -Wextra -O3 -DNDEBUG
c Wed Feb 16 23:15:36 EST 2022 Linux fac-vanhoeve01 5.4.0-99-generic x86_64
c 
c --- [ parsing input ] ------------------------------------------------------
c 
c reading DIMACS file from '<stdin>' (use '-h' for a list of common options)
c found 'p cnf 2692 7976' header
c parsed 7976 clauses in 0.00 seconds process time
c disconnecting from '<stdin>'
c after reading 106558 bytes 0.1 MB
c 
c --- [ options ] ------------------------------------------------------------
c 
c all options are set to their default value
c 
c --- [ solving ] ------------------------------------------------------------
c 
c time measured in process time since initialization
c 
c  seconds  reductions  redundant irredundant
c         MB    restarts       trail    variables
c          level   conflicts       glue      remaining
c 
c *  0.00  5  0 0   0    0    0  0% 0 7974 2618 97%
c {  0.01  5  0 0   0    0    0  0% 0 7974 2618 97%
c -  0.02  5 63 1  29  301  279 77% 9 7902 2618 97%
c -  0.06  5 34 2  44  902  670 81% 10 7902 2618 97%
c }  0.06  5 33 2  47 1001  755 82% 10 7902 2618 97%
c [  0.06  5  0 2  47 1001  755  0% 0 7902 2618 97%
c O  0.06  5 15 2  47 1002  756 95% 12 7902 2618 97%
c -  0.11  6 16 3  47 1802 1043 93% 13 7902 2618 97%
c ]  0.18  6 18 3  48 3001 1884 92% 14 7902 2618 97%
c {  0.18  6 33 3  48 3001 1884 82% 10 7902 2618 97%
c -  0.18  6 33 4  48 3003 1282 82% 10 7902 2618 97%
c F  0.19  6 33 4  48 3004 1283 82% 10 7902 2618 97%
c s  0.20  6 31 4  59 3215 1463 83% 10 7902 2618 97%
c w  0.20  6 31 4  59 3215 1463 83% 10 7902 2618 97%
c e  0.22  6 31 4  59 3215   59 83% 10 5684 885 33%
c s  0.22  6 31 4  59 3215   56 83% 10 5684 885 33%
c -  0.28  6 24 5  94 4503 1242 85% 10 5684 885 33%
c p  0.31  6 24 5 131 5000 1719 85% 10 5684 885 33%
c #  0.35  6 24 5 248 6006 2661 85% 10 5684 885 33%
c -  0.36  6 24 6 255 6303 2227 85% 10 5684 885 33%
c 
c  seconds  reductions  redundant  irredundant
c         MB    restarts       trail     variables
c          level   conflicts       glue      remaining
c 
c }  0.39  6 22 6 266 7002 2846 82% 10 5684 885 33%
c [  0.39  6 18 6 266 7002 2846 281% 14 5684 885 33%
c -  0.45  6 18 7 267 8407 2734 193% 14 5684 885 33%
c I  0.52  6 18 7 268 10007 4076 153% 13 5684 885 33%
c -  0.56  6 20 8 269 10807 3192 144% 13 5684 885 33%
c -  0.69  7 21 9 271 13507 3669 126% 14 5684 885 33%
c s  0.72  7 22 9 271 13948 4054 124% 14 5684 885 33%
c w  0.73  7 22 9 271 13948 4052 124% 14 5684 885 33%
c s  0.74  7 22 9 271 13948 4052 124% 14 5684 885 33%
c ^  0.74  7 22 9 271 13948 4052 124% 14 5684 885 33%
c p  0.80  7 22 9 271 15001 4964 120% 15 5684 885 33%
c ]  0.80  7 22 9 271 15004 4965 120% 15 5684 885 33%
c {  0.80  7 22 9 271 15004 4965 82% 10 5684 885 33%
c B  0.81  7 22 9 271 15009 4969 82% 10 5684 885 33%
c -  0.88  7 22 10 402 16508 4195 82% 10 5684 885 33%
c -  1.02  6 21 11 575 19809 4530 79% 10 5684 885 33%
c W  1.09  6 20 11 591 21012 5600 80% 10 5684 885 33%
c -  1.19  7 20 12 712 23409 5264 79% 9 5684 885 33%
c -  1.36  7 19 13 856 27310 5704 76% 9 5684 885 33%
c F  1.40  7 19 13 942 28013 6374 76% 9 5684 885 33%
c 
c  seconds  reductions     redundant irredundant
c         MB     restarts         trail    variables
c          level      conflicts       glue     remaining
c 
c p  1.50  7 19 13 1136 30002 8238 77% 9 5684 885 33%
c s  1.52  7 19 13 1140 30047 8253 77% 9 5684 885 33%
c w  1.53  7 19 13 1140 30047 8249 77% 9 5684 885 33%
c s  1.54  7 19 13 1140 30047 8246 77% 9 5684 885 33%
c ^  1.55  7 19 13 1140 30047 8246 77% 9 5684 885 33%
c }  1.60  7 19 13 1275 31008 9171 78% 9 5684 885 33%
c [  1.60  7 22 13 1275 31008 9171 120% 15 5684 885 33%
c -  1.63  7 22 14 1275 31510 6722 118% 15 5684 885 33%
c -  1.89  7 23 15 1278 36010 7038 109% 15 5684 885 33%
c B  1.89  7 23 15 1278 36014 7042 109% 15 5684 885 33%
c -  2.16  7 30 16 1281 40811 7173 104% 17 5684 885 33%
c W  2.45  7 32 16 1282 45017 11101 102% 19 5684 885 33%
c -  2.51  8 32 17 1282 45911 7484 101% 19 5684 885 33%
c p  2.80  8 32 17 1283 50003 10829 99% 20 5684 885 33%
c -  2.89  7 32 18 1283 51312 7420 99% 20 5684 885 33%
c s  2.91  7 32 18 1283 51516 7562 99% 20 5684 885 33%
c s  2.93  7 32 18 1283 51516 7562 99% 20 5684 885 33%
c ^  2.94  7 32 18 1283 51516 7562 99% 20 5684 885 33%
c O  3.16  7 32 18 1284 55018 10124 98% 21 5684 885 33%
c -  3.27  8 32 19 1286 57014 7109 97% 21 5684 885 33%
c 
c  seconds  reductions      redundant  irredundant
c         MB     restarts          trail     variables
c          level      conflicts        glue      remaining
c 
c ]  3.60  8 31 19 1290 63009 10956 96% 20 5684 885 33%
c {  3.60  8 19 19 1290 63009 10956 78% 9 5684 885 33%
c -  3.60  8 19 20 1290 63014 6686 78% 9 5684 885 33%
c B  3.76  8 19 20 1642 66022 9517 79% 10 5684 885 33%
c -  3.94  9 19 21 1961 69314 8713 79% 10 5684 885 33%
c -  4.31  9 19 22 2457 75915 10036 80% 10 5684 885 33%
c W  4.44  9 19 22 2568 78024 11963 81% 10 5684 885 33%
c s  4.47  9 19 22 2641 78349 12247 81% 10 5684 885 33%
c s  4.52  9 19 22 2641 78349 12242 81% 10 5684 885 33%
c ^  4.52  9 19 22 2641 78349 12242 81% 10 5684 885 33%
c -  4.75  9 19 23 2843 82818 10957 80% 10 5684 885 33%
c -  5.16  9 19 24 3312 90018 11458 81% 10 5684 885 33%
c #  5.22  9 19 24 3420 91025 12394 81% 10 5684 885 33%
c -  5.60 10 19 25 3930 97518 12511 81% 10 5684 885 33%
c p  6.03 10 19 25 4455 105006 19236 81% 10 5684 885 33%
c B  6.03 10 19 25 4458 105026 19256 81% 10 5684 885 33%
c -  6.06 11 19 26 4502 105318 12971 81% 10 5684 885 33%
c s  6.36 11 19 26 4753 110547 17703 81% 10 5684 885 33%
c w  6.38 11 19 26 4753 110547 17701 81% 10 5684 885 33%
c e  6.40 11 19 26 4753 110547 3930 81% 10 8120 567 21%
c 
c  seconds  reductions      redundant  irredundant
c         MB     restarts          trail     variables
c          level      conflicts        glue      remaining
c 
c s  6.41 11 19 26 4753 110547 3929 81% 10 8120 567 21%
c ^  6.41 11 19 26 4753 110547 3929 81% 10 8120 567 21%
c -  6.55  9 19 27 4936 113418 5311 85% 10 8120 567 21%
c W  6.91  9 19 27 5326 120029 11286 80% 10 8120 567 21%
c -  7.00 10 19 28 5445 121818 10332 81% 10 8120 567 21%
c }  7.28 10 19 28 5846 127011 15144 82% 10 8120 567 21%
c [  7.28 10 31 28 5846 127011 15144 149% 20 8120 567 21%
c -  7.47 11 29 29 5846 130521 12535 142% 20 8120 567 21%
c B  7.74 11 31 29 5851 136030 17475 135% 20 8120 567 21%
c -  7.95 11 31 30 5853 139522 13346 131% 20 8120 567 21%
c p  7.99 11 31 30 5853 140008 13792 130% 20 8120 567 21%
c -  8.54 11 30 31 5854 148823 12600 122% 20 8120 567 21%
c W  8.85 11 30 31 5855 153032 15719 119% 20 8120 567 21%
c -  9.20 11 32 32 5855 158425 13371 116% 21 8120 567 21%
c s  9.62 11 34 32 5855 164310 18643 113% 22 8120 567 21%
c s  9.67 11 34 32 5855 164310 18633 113% 22 8120 567 21%
c - 10.00 12 35 33 5856 168329 14499 111% 22 8120 567 21%
c I 10.22 12 35 33 5858 171034 16692 110% 22 8120 567 21%
c - 10.68 10 34 34 5862 178530 14095 108% 22 8120 567 21%
c p 10.78 10 33 34 5862 180008 15124 107% 21 8120 567 21%
c 
c  seconds  reductions       redundant   irredundant
c         MB     restarts           trail      variables
c          level      conflicts          glue      remaining
c 
c - 11.34 12 31 35 5869 189030 13242 104% 21 8120 567 21%
c B 11.40 12 31 35 5869 190036 14037 104% 21 8120 567 21%
c - 12.01 13 33 36 5870 199831 14679 102% 21 8120 567 21%
c W 12.76 13 33 36 5877 210039 23531 100% 22 8120 567 21%
c - 12.83 13 33 37 5877 210933 15410 100% 22 8120 567 21%
c - 13.61 13 33 38 5884 222333 15797 98% 22 8120 567 21%
c p 13.79 13 33 38 5884 225008 18046 97% 22 8120 567 21%
c O 14.20 13 33 38 5885 231040 23316 96% 22 8120 567 21%
c - 14.40 13 33 39 5885 234033 16121 96% 22 8120 567 21%
c - 15.13 13 31 40 5886 246034 13924 95% 21 8120 567 21%
c B 15.55 13 30 40 5887 253041 17764 94% 20 8120 567 21%
c ] 15.66 13 30 40 5887 255011 19498 94% 20 8120 567 21%
c { 15.66 13 19 40 5887 255011 19498 82% 10 8120 567 21%
c - 15.88 13 19 41 6117 258335 15426 81% 10 8120 567 21%
c - 16.57 13 19 42 6868 270935 18162 81% 10 8120 567 21%
c p 16.82 13 19 42 7145 275008 21923 81% 10 8120 567 21%
c F 16.89 13 19 42 7180 276042 22829 81% 10 8120 567 21%
c - 17.44 13 19 43 7925 283837 20295 81% 10 8120 567 21%
c - 18.31 14 19 44 8846 297038 21089 81% 10 8120 567 21%
c B 18.49 14 19 44 9015 300049 23816 81% 10 8120 567 21%
c 
c  seconds  reductions       redundant  irredundant
c         MB     restarts           trail     variables
c          level      conflicts         glue      remaining
c 
c - 19.16 14 19 45 9583 310538 22456 81% 10 8120 567 21%
c - 20.13 14 19 46 10719 324338 23587 82% 10 8120 567 21%
c W 20.27 14 19 46 10824 325052 24242 82% 10 8120 567 21%
c p 20.65 14 19 46 11381 330012 28723 81% 10 8120 567 21%
c - 21.24 14 19 47 11808 338441 23614 80% 10 8120 567 21%
c # 22.10 14 18 47 12633 351053 34820 80% 10 8120 567 21%
c - 22.26 14 18 48 12799 352843 24773 80% 10 8120 567 21%
c - 23.34 13 18 49 13944 367543 25966 81% 10 8120 567 21%
c B 24.12 13 18 49 14894 378054 35322 81% 10 8120 567 21%
c - 24.45 13 18 50 15128 382543 26724 81% 10 8120 567 21%
c p 25.04 13 18 50 15899 390014 33389 81% 10 8120 567 21%
c - 25.66 13 18 51 16483 397843 27379 81% 10 8120 567 21%
c W 26.33 13 18 51 16911 406055 34474 81% 10 8120 567 21%
c - 26.93 13 18 52 17446 413443 27742 81% 10 8120 567 21%
c - 28.08 13 18 53 18480 429344 28874 81% 10 8120 567 21%
c F 28.51 13 19 53 18959 435058 34171 81% 10 8120 567 21%
c - 29.30 13 18 54 19540 445546 29594 82% 10 8120 567 21%
c p 30.04 13 18 54 20243 455017 38351 82% 10 8120 565 21%
c s 30.11 14 18 54 20243 455017 38182 82% 10 8120 565 21%
c v 30.15 14 18 54 20243 455017 38182 82% 10 8104 565 21%
c 
c  seconds  reductions        redundant  irredundant
c         MB      restarts           trail     variables
c          level       conflicts         glue      remaining
c 
c w 30.21 14 18 54 20243 455017 38153 82% 10 8104 565 21%
c s 30.29 14 18 54 20243 455017 38142 82% 10 8094 565 21%
c - 30.93 14 18 55 20780 462046 30841 82% 10 8094 565 21%
c B 31.12 14 18 55 20880 465059 33548 82% 10 8094 565 21%
c - 32.31 14 18 56 22086 478848 31162 82% 10 8094 565 21%
c - 33.79 14 19 57 23656 495948 32479 82% 10 8094 565 21%
c W 33.93 14 19 57 23678 496060 32581 82% 10 8094 565 21%
c } 35.18 14 19 57 24813 511013 46140 82% 10 8094 565 21%
c [ 35.18 14 30 57 24813 511013 46140 94% 20 8094 565 21%
c - 35.38 14 29 58 24813 513351 32899 94% 20 8094 565 21%
c s 36.37 15 28 58 24813 524151 42488 93% 19 8094 565 21%
c w 36.44 15 28 58 24813 524151 42485 93% 19 8094 565 21%
c s 36.53 15 28 58 24813 524151 42482 93% 19 8094 565 21%
c p 36.64 15 28 58 24813 525017 43406 93% 19 8094 564 21%
c W 37.08 17 29 58 24813 528063 46148 93% 19 8089 564 21%
c - 37.36 15 29 59 24813 531051 32865 93% 20 8089 564 21%
c - 39.02 15 29 60 24820 549052 29748 92% 20 8089 564 21%
c I 40.09 15 28 60 24827 561066 38004 92% 20 8089 564 21%
c - 40.62 18 28 61 24828 567352 28492 91% 20 8089 564 21%
c - 42.29 21 28 62 24836 585952 29955 91% 20 8089 564 21%
c 
c  seconds  reductions        redundant  irredundant
c         MB      restarts           trail     variables
c          level       conflicts         glue      remaining
c 
c B 43.09 21 28 62 24842 595067 37482 91% 20 8089 564 21%
c p 43.51 21 29 62 24843 600018 41994 91% 20 8089 564 21%
c s 43.63 21 29 62 24843 600962 42716 91% 20 8078 564 21%
c w 43.71 21 29 62 24843 600962 42716 91% 20 8078 564 21%
c s 43.73 21 29 62 24843 600962 42716 91% 20 8078 564 21%
c - 44.04 21 28 63 24843 604853 29877 90% 20 8078 564 21%
c - 45.50 21 27 64 24845 624056 29213 90% 19 8078 564 21%
c W 46.14 21 27 64 24850 630069 34146 90% 19 8078 564 21%
c - 47.26 21 26 65 24857 643557 28495 90% 19 8078 564 21%
c - 48.91 21 24 66 24865 663357 29647 89% 18 8078 564 21%
c O 49.13 21 24 66 24866 666070 31964 89% 18 8078 564 21%
c p 50.25 21 24 66 24873 680018 41359 89% 18 8078 564 21%
c - 50.57 21 24 67 24874 683457 28592 89% 18 8078 564 21%
c B 52.19 21 23 67 24875 703072 39562 88% 17 8078 564 21%
c - 52.28 21 23 68 24875 703859 27047 88% 17 8078 564 21%
c - 53.92 21 22 69 24876 724560 29107 88% 17 8078 564 21%
c W 55.43 21 22 69 24877 741073 43151 88% 17 8078 564 21%
c - 55.89 21 22 70 24877 745561 31784 88% 17 8078 564 21%
c p 57.67 21 22 70 24877 765021 46005 88% 17 8078 564 21%
c - 57.89 21 22 71 24877 766862 32686 88% 17 8078 564 21%
c 
c  seconds  reductions        redundant  irredundant
c         MB      restarts           trail     variables
c          level       conflicts         glue      remaining
c 
c I 59.02 21 22 71 24877 780074 42482 88% 17 8078 564 21%
c - 59.75 21 23 72 24877 788462 34805 88% 17 8078 564 21%
c - 62.11 26 25 73 24881 810365 37489 88% 17 8078 564 21%
c B 63.18 26 26 73 24887 820076 45817 88% 18 8078 564 21%
c - 64.56 21 26 74 24892 832565 36706 88% 18 8078 564 21%
c p 67.14 21 26 74 24902 855021 54612 88% 18 8078 564 21%
c - 67.20 23 26 75 24902 855067 34647 88% 18 8078 564 21%
c W 67.98 23 25 75 24906 861077 39431 88% 18 8078 564 21%
c - 69.67 23 25 76 24908 877868 34923 88% 19 8078 564 21%
c - 72.05 23 25 77 24916 900968 35026 88% 19 8078 564 21%
c O 72.22 23 25 77 24918 903078 36785 88% 19 8078 564 21%
c - 74.07 23 25 78 24926 924368 32494 88% 19 8078 564 21%
c B 76.03 23 24 78 24937 946083 48314 87% 18 8078 564 21%
c - 76.23 23 24 79 24938 948069 34143 87% 19 8078 564 21%
c p 76.39 23 24 79 24938 950021 35765 87% 19 8078 564 21%
c - 78.18 23 24 80 24940 972070 35452 88% 18 8078 564 21%
c W 80.31 23 23 80 24940 990085 49373 88% 18 8078 564 21%
c - 80.96 23 23 81 24940 996370 36875 87% 18 8078 564 21%
c - 83.14 23 22 82 24950 1020970 38299 88% 17 8078 564 21%
c ] 83.34 23 22 82 24952 1023014 39994 88% 17 8078 564 21%
c 
c  seconds  reductions         redundant  irredundant
c         MB      restarts            trail     variables
c          level        conflicts         glue      remaining
c 
c { 83.34 23 19 82 24952 1023014 39994 82% 10 8078 564 21%
c # 84.34 23 18 82 25537 1035086 50910 82% 10 8078 564 21%
c - 85.45 23 18 83 26318 1045871 40962 82% 10 8078 564 21%
c s 85.62 23 18 83 26318 1045871 40623 82% 10 8078 564 21%
c w 85.73 23 18 83 26318 1045871 40593 82% 10 8078 564 21%
c p 86.16 23 18 83 26656 1050022 44478 82% 10 8078 564 21%
c - 88.30 23 18 84 28262 1071071 45741 83% 10 8078 564 21%
c B 89.22 23 18 84 28971 1081088 54545 83% 10 8078 564 21%
c - 90.82 25 18 85 29930 1096571 45711 83% 10 8078 564 21%
c - 93.24 25 18 86 31421 1122371 46531 83% 10 8078 564 21%
c W 94.01 25 18 86 31798 1128089 51740 83% 10 8078 564 21%
c - 96.18 25 18 87 33228 1148471 47319 82% 10 8078 564 21%
c p 96.79 25 18 87 33672 1155022 53051 82% 10 8078 564 21%
c - 98.81 25 18 88 34672 1174872 48956 82% 10 8078 564 21%
c F 98.93 25 18 88 34761 1176091 50090 82% 10 8078 564 21%
c - 101.71 25 18 89 36472 1201573 50484 82% 10 8078 564 21%
c B 104.07 25 18 89 38030 1225093 70858 82% 10 8078 564 21%
c - 104.50 25 18 90 38206 1228573 50933 82% 10 8078 564 21%
c - 107.77 26 18 91 40517 1255876 52315 82% 10 8078 564 21%
c p 108.82 26 18 91 41295 1265024 60480 82% 10 8078 564 21%
c 
c  seconds   reductions         redundant  irredundant
c          MB      restarts            trail     variables
c           level        conflicts         glue      remaining
c 
c W 110.45 26 18 91 42084 1275094 69727 82% 10 8078 564 21%
c - 111.60 26 18 92 42705 1283478 53602 82% 10 8078 564 21%
c - 114.63 26 18 93 44393 1311378 54807 83% 10 8078 564 21%
c # 116.13 26 18 93 45204 1326096 67269 81% 10 8078 564 21%
c - 117.77 26 18 94 46139 1339578 54578 81% 10 8078 564 21%
c - 120.95 26 17 95 47746 1368078 56944 81% 10 8078 564 21%
c B 122.04 26 17 95 48562 1378099 65843 81% 10 8078 564 21%
c p 122.33 26 17 95 48733 1380024 67646 81% 10 8078 564 21%
c - 124.43 28 18 96 49910 1396878 58182 82% 10 8078 564 21%
c - 127.89 28 17 97 51686 1425978 57390 81% 10 8078 564 21%
c } 128.53 28 17 97 52057 1431102 61646 81% 10 8078 564 21%
c 1 128.54 28 17 97 52057 1431102 61646 81% 10 8078 564 21%
c 
c --- [ result ] -------------------------------------------------------------
c 
s SATISFIABLE
v -1 -2 -3 -4 -5 -6 -7 8 -9 10 -11 -12 -13 -14 -15 -16 -17 -18 -19 -20 -21 -22
v -23 24 -25 26 -27 28 -29 -30 31 -32 -33 -34 -35 -36 37 38 -39 -40 -41 -42
v -43 -44 -45 -46 47 -48 -49 -50 -51 -52 -53 54 55 56 -57 -58 59 -60 -61 62 63
v -64 -65 -66 -67 -68 -69 -70 -71 -72 -73 -74 -75 76 -77 -78 -79 -80 -81 82
v -83 -84 85 86 -87 -88 -89 -90 -91 -92 -93 -94 -95 -96 -97 -98 -99 -100 -101
v -102 -103 -104 -105 -106 -107 -108 109 -110 -111 -112 -113 -114 -115 -116
v -117 -118 119 -120 121 -122 -123 -124 -125 126 -127 -128 129 -130 -131 -132
v -133 -134 -135 -136 -137 -138 -139 140 -141 -142 -143 -144 -145 -146 -147
v 148 -149 -150 -151 -152 -153 -154 -155 156 -157 -158 -159 -160 -161 -162
v -163 -164 -165 -166 -167 -168 -169 -170 -171 -172 173 174 -175 -176 -177
v -178 -179 180 -181 182 183 -184 -185 -186 -187 -188 -189 -190 -191 -192 193
v -194 195 -196 -197 -198 -199 -200 -201 -202 -203 -204 -205 -206 -207 -208
v -209 -210 211 -212 -213 214 -215 216 -217 -218 -219 -220 -221 -222 223 -224
v -225 -226 -227 -228 -229 -230 231 232 -233 234 -235 -236 -237 -238 -239 240
v -241 -242 -243 -244 -245 246 -247 -248 -249 -250 251 -252 253 -254 -255 256
v -257 258 259 260 -261 -262 -263 264 -265 -266 267 268 -269 270 271 272 -273
v 274 -275 276 277 278 -279 -280 281 282 -283 -284 -285 -286 287 288 -289 -290
v 291 292 293 294 -295 -296 -297 -298 -299 -300 -301 302 -303 -304 -305 306
v -307 308 309 310 -311 -312 -313 -314 -315 -316 -317 -318 319 320 -321 -322
v -323 -324 325 326 327 328 329 330 331 332 333 334 335 336 337 338 339 340
v 341 342 343 344 345 346 347 348 349 350 351 352 353 354 355 356 357 358 359
v 360 361 362 363 364 365 366 367 368 369 370 371 372 373 374 375 376 377 378
v 379 380 381 382 383 384 385 386 387 388 389 390 391 392 393 394 395 396 397
v 398 -399 -400 401 402 403 404 405 406 407 408 409 410 411 412 413 414 415
v 416 417 418 419 420 421 422 423 424 425 426 427 428 429 430 431 432 433 434
v 435 436 437 438 439 440 441 442 443 444 445 446 447 448 449 450 451 452 453
v 454 455 456 457 458 459 460 461 462 463 464 465 466 467 468 469 470 471 472
v -473 -474 -475 -476 -477 478 479 480 481 482 483 484 485 486 487 488 489 490
v 491 492 493 494 495 496 497 498 499 500 501 502 503 504 505 506 507 508 509
v 510 511 512 513 514 515 516 517 518 519 520 521 522 523 524 525 526 527 528
v 529 530 531 532 533 534 535 536 537 538 539 540 541 542 543 544 545 546 -547
v -548 -549 -550 -551 -552 -553 554 555 556 557 558 559 560 561 562 563 564
v 565 566 567 568 569 570 571 572 573 574 575 576 577 578 579 580 581 582 583
v 584 585 586 587 588 589 590 591 592 593 594 595 596 597 598 599 600 601 602
v 603 604 605 606 607 608 609 610 611 612 613 614 615 616 617 618 619 620 -621
v -622 -623 -624 -625 -626 -627 -628 629 630 631 632 633 634 635 636 637 638
v 639 640 641 642 643 644 645 646 647 648 649 650 651 652 653 654 655 656 657
v 658 659 660 661 662 663 664 665 666 667 668 669 670 671 672 673 674 675 676
v 677 678 679 680 681 682 683 684 685 686 687 688 689 690 691 692 693 694 -695
v -696 -697 -698 -699 -700 -701 -702 -703 704 705 706 707 708 709 710 711 712
v 713 714 715 716 717 718 719 720 721 722 723 724 725 726 727 728 729 730 731
v 732 733 734 735 736 737 738 739 740 741 742 743 744 745 746 747 748 749 750
v 751 752 753 754 755 756 757 758 759 760 761 762 763 764 765 766 767 768 -769
v -770 -771 -772 -773 -774 -775 -776 -777 -778 -779 -780 -781 782 783 784 785
v 786 787 788 789 790 791 792 793 794 795 796 797 798 799 800 801 802 803 804
v 805 806 807 808 809 810 811 812 813 814 815 816 817 818 819 820 821 822 823
v 824 825 826 827 828 829 830 831 832 833 834 835 836 837 838 839 840 841 842
v -843 -844 -845 -846 -847 -848 -849 -850 -851 -852 -853 -854 -855 -856 -857
v -858 859 860 861 862 863 864 865 866 867 868 869 870 871 872 873 874 875 876
v 877 878 879 880 881 882 883 884 885 886 887 888 889 890 891 892 893 894 895
v 896 897 898 899 900 901 902 903 904 905 906 907 908 909 910 911 912 913 914
v 915 916 -917 -918 -919 -920 -921 -922 -923 -924 -925 -926 -927 -928 -929
v -930 -931 -932 -933 934 935 936 937 938 939 940 941 942 943 944 945 946 947
v 948 949 950 951 952 953 954 955 956 957 958 959 960 961 962 963 964 965 966
v 967 968 969 970 971 972 973 974 975 976 977 978 979 980 981 982 983 984 985
v 986 987 988 989 990 -991 -992 -993 -994 -995 -996 -997 -998 -999 -1000 -1001
v -1002 -1003 -1004 -1005 -1006 -1007 -1008 -1009 1010 1011 1012 1013 1014
v 1015 1016 1017 1018 1019 1020 1021 1022 1023 1024 1025 1026 1027 1028 1029
v 1030 1031 1032 1033 1034 1035 1036 1037 1038 1039 1040 1041 1042 1043 1044
v 1045 1046 1047 1048 1049 1050 1051 1052 1053 1054 1055 1056 1057 1058 1059
v 1060 1061 1062 1063 1064 -1065 -1066 -1067 -1068 -1069 -1070 -1071 -1072
v -1073 -1074 -1075 -1076 -1077 -1078 -1079 -1080 -1081 -1082 -1083 -1084 1085
v 1086 1087 1088 1089 1090 1091 1092 1093 1094 1095 1096 1097 1098 1099 1100
v 1101 1102 1103 1104 1105 1106 1107 1108 1109 1110 1111 1112 1113 1114 1115
v 1116 1117 1118 1119 1120 1121 1122 1123 1124 1125 1126 1127 1128 1129 1130
v 1131 1132 1133 1134 1135 1136 1137 1138 -1139 -1140 -1141 -1142 -1143 -1144
v -1145 -1146 -1147 -1148 -1149 -1150 -1151 -1152 -1153 -1154 -1155 -1156
v -1157 -1158 -1159 1160 1161 1162 1163 1164 1165 1166 1167 1168 1169 1170
v 1171 1172 1173 1174 1175 1176 1177 1178 1179 1180 1181 1182 1183 1184 1185
v 1186 1187 1188 1189 1190 1191 1192 1193 1194 1195 1196 1197 1198 1199 1200
v 1201 1202 1203 1204 1205 1206 1207 1208 1209 1210 1211 1212 -1213 -1214
v -1215 -1216 -1217 -1218 -1219 -1220 -1221 -1222 -1223 -1224 -1225 -1226
v -1227 -1228 -1229 -1230 -1231 -1232 -1233 -1234 -1235 1236 1237 1238 1239
v 1240 1241 1242 1243 1244 1245 1246 1247 1248 1249 1250 1251 1252 1253 1254
v 1255 1256 1257 1258 1259 1260 1261 1262 1263 1264 1265 1266 1267 1268 1269
v 1270 1271 1272 1273 1274 1275 1276 1277 1278 1279 1280 1281 1282 1283 1284
v 1285 1286 -1287 -1288 -1289 -1290 -1291 -1292 -1293 -1294 -1295 -1296 -1297
v -1298 -1299 -1300 -1301 -1302 -1303 -1304 -1305 -1306 -1307 -1308 -1309
v -1310 -1311 1312 1313 1314 1315 1316 1317 1318 1319 1320 1321 1322 1323 1324
v 1325 1326 1327 1328 1329 1330 1331 1332 1333 1334 1335 1336 1337 1338 1339
v 1340 1341 1342 1343 1344 1345 1346 1347 1348 1349 1350 1351 1352 1353 1354
v 1355 1356 1357 1358 1359 1360 -1361 -1362 -1363 -1364 -1365 -1366 -1367
v -1368 -1369 -1370 -1371 -1372 -1373 -1374 -1375 -1376 -1377 -1378 -1379
v -1380 -1381 -1382 -1383 -1384 -1385 -1386 1387 1388 1389 1390 1391 1392 1393
v 1394 1395 1396 1397 1398 1399 1400 1401 1402 1403 1404 1405 1406 1407 1408
v 1409 1410 1411 1412 1413 1414 1415 1416 1417 1418 1419 1420 1421 1422 1423
v 1424 1425 1426 1427 1428 1429 1430 1431 1432 1433 1434 -1435 -1436 -1437
v -1438 -1439 -1440 -1441 -1442 -1443 -1444 -1445 -1446 -1447 -1448 -1449
v -1450 -1451 -1452 -1453 -1454 -1455 -1456 -1457 -1458 -1459 -1460 -1461 1462
v 1463 1464 1465 1466 1467 1468 1469 1470 1471 1472 1473 1474 1475 1476 1477
v 1478 1479 1480 1481 1482 1483 1484 1485 1486 1487 1488 1489 1490 1491 1492
v 1493 1494 1495 1496 1497 1498 1499 1500 1501 1502 1503 1504 1505 1506 1507
v 1508 -1509 -1510 -1511 -1512 -1513 -1514 -1515 -1516 -1517 -1518 -1519 -1520
v -1521 -1522 -1523 -1524 -1525 -1526 -1527 -1528 -1529 -1530 -1531 -1532
v -1533 -1534 -1535 -1536 -1537 -1538 1539 1540 1541 1542 1543 1544 1545 1546
v 1547 1548 1549 1550 1551 1552 1553 1554 1555 1556 1557 1558 1559 1560 1561
v 1562 1563 1564 1565 1566 1567 1568 1569 1570 1571 1572 1573 1574 1575 1576
v 1577 1578 1579 1580 1581 1582 -1583 -1584 -1585 -1586 -1587 -1588 -1589
v -1590 -1591 -1592 -1593 -1594 -1595 -1596 -1597 -1598 -1599 -1600 -1601
v -1602 -1603 -1604 -1605 -1606 -1607 -1608 -1609 -1610 -1611 -1612 -1613 1614
v 1615 1616 1617 1618 1619 1620 1621 1622 1623 1624 1625 1626 1627 1628 1629
v 1630 1631 1632 1633 1634 1635 1636 1637 1638 1639 1640 1641 1642 1643 1644
v 1645 1646 1647 1648 1649 1650 1651 1652 1653 1654 1655 1656 -1657 -1658
v -1659 -1660 -1661 -1662 -1663 -1664 -1665 -1666 -1667 -1668 -1669 -1670
v -1671 -1672 -1673 -1674 -1675 -1676 -1677 -1678 -1679 -1680 -1681 -1682
v -1683 -1684 -1685 -1686 -1687 -1688 -1689 -1690 -1691 -1692 1693 1694 1695
v 1696 1697 1698 1699 1700 1701 1702 1703 1704 1705 1706 1707 1708 1709 1710
v 1711 1712 1713 1714 1715 1716 1717 1718 1719 1720 1721 1722 1723 1724 1725
v 1726 1727 1728 1729 1730 -1731 -1732 -1733 -1734 -1735 -1736 -1737 -1738
v -1739 -1740 -1741 -1742 -1743 -1744 -1745 -1746 -1747 -1748 -1749 -1750
v -1751 -1752 -1753 -1754 -1755 -1756 -1757 -1758 -1759 -1760 -1761 -1762
v -1763 -1764 -1765 -1766 -1767 1768 1769 1770 1771 1772 1773 1774 1775 1776
v 1777 1778 1779 1780 1781 1782 1783 1784 1785 1786 1787 1788 1789 1790 1791
v 1792 1793 1794 1795 1796 1797 1798 1799 1800 1801 1802 1803 1804 -1805 -1806
v -1807 -1808 -1809 -1810 -1811 -1812 -1813 -1814 -1815 -1816 -1817 -1818
v -1819 -1820 -1821 -1822 -1823 -1824 -1825 -1826 -1827 -1828 -1829 -1830
v -1831 -1832 -1833 -1834 -1835 -1836 -1837 -1838 -1839 -1840 -1841 -1842
v -1843 -1844 1845 1846 1847 1848 1849 1850 1851 1852 1853 1854 1855 1856 1857
v 1858 1859 1860 1861 1862 1863 1864 1865 1866 1867 1868 1869 1870 1871 1872
v 1873 1874 1875 1876 1877 1878 -1879 -1880 -1881 -1882 -1883 -1884 -1885
v -1886 -1887 -1888 -1889 -1890 -1891 -1892 -1893 -1894 -1895 -1896 -1897
v -1898 -1899 -1900 -1901 -1902 -1903 -1904 -1905 -1906 -1907 -1908 -1909
v -1910 -1911 -1912 -1913 -1914 -1915 -1916 -1917 -1918 -1919 1920 1921 1922
v 1923 1924 1925 1926 1927 1928 1929 1930 1931 1932 1933 1934 1935 1936 1937
v 1938 1939 1940 1941 1942 1943 1944 1945 1946 1947 1948 1949 1950 1951 1952
v -1953 -1954 -1955 -1956 -1957 -1958 -1959 -1960 -1961 -1962 -1963 -1964
v -1965 -1966 -1967 -1968 -1969 -1970 -1971 -1972 -1973 -1974 -1975 -1976
v -1977 -1978 -1979 -1980 -1981 -1982 -1983 -1984 -1985 -1986 -1987 -1988
v -1989 -1990 -1991 -1992 -1993 -1994 1995 1996 1997 1998 1999 2000 2001 2002
v 2003 2004 2005 2006 2007 2008 2009 2010 2011 2012 2013 2014 2015 2016 2017
v 2018 2019 2020 2021 2022 2023 2024 2025 2026 -2027 -2028 -2029 -2030 -2031
v -2032 -2033 -2034 -2035 -2036 -2037 -2038 -2039 -2040 -2041 -2042 -2043
v -2044 -2045 -2046 -2047 -2048 -2049 -2050 -2051 -2052 -2053 -2054 -2055
v -2056 -2057 -2058 -2059 -2060 -2061 -2062 -2063 -2064 -2065 -2066 -2067
v -2068 -2069 2070 2071 2072 2073 2074 2075 2076 2077 2078 2079 2080 2081 2082
v 2083 2084 2085 2086 2087 2088 2089 2090 2091 2092 2093 2094 2095 2096 2097
v 2098 2099 2100 -2101 -2102 -2103 -2104 -2105 -2106 -2107 -2108 -2109 -2110
v -2111 -2112 -2113 -2114 -2115 -2116 -2117 -2118 -2119 -2120 -2121 -2122
v -2123 -2124 -2125 -2126 -2127 -2128 -2129 -2130 -2131 -2132 -2133 -2134
v -2135 -2136 -2137 -2138 -2139 -2140 -2141 -2142 -2143 -2144 -2145 -2146
v -2147 -2148 -2149 -2150 -2151 2152 2153 2154 2155 2156 2157 2158 2159 2160
v 2161 2162 2163 2164 2165 2166 2167 2168 2169 2170 2171 2172 2173 2174 -2175
v -2176 -2177 -2178 -2179 -2180 -2181 -2182 -2183 -2184 -2185 -2186 -2187
v -2188 -2189 -2190 -2191 -2192 -2193 -2194 -2195 -2196 -2197 -2198 -2199
v -2200 -2201 -2202 -2203 -2204 -2205 -2206 -2207 -2208 -2209 -2210 -2211
v -2212 -2213 -2214 -2215 -2216 -2217 -2218 -2219 -2220 -2221 -2222 -2223
v -2224 -2225 -2226 -2227 -2228 -2229 2230 2231 2232 2233 2234 2235 2236 2237
v 2238 2239 2240 2241 2242 2243 2244 2245 2246 2247 2248 -2249 -2250 -2251
v -2252 -2253 -2254 -2255 -2256 -2257 -2258 -2259 -2260 -2261 -2262 -2263
v -2264 -2265 -2266 -2267 -2268 -2269 -2270 -2271 -2272 -2273 -2274 -2275
v -2276 -2277 -2278 -2279 -2280 -2281 -2282 -2283 -2284 -2285 -2286 -2287
v -2288 -2289 -2290 -2291 -2292 -2293 -2294 -2295 -2296 -2297 -2298 -2299
v -2300 -2301 -2302 -2303 -2304 -2305 2306 2307 2308 2309 2310 2311 2312 2313
v 2314 2315 2316 2317 2318 2319 2320 2321 2322 -2323 -2324 -2325 -2326 -2327
v -2328 -2329 -2330 -2331 -2332 -2333 -2334 -2335 -2336 -2337 -2338 -2339
v -2340 -2341 -2342 -2343 -2344 -2345 -2346 -2347 -2348 -2349 -2350 -2351
v -2352 -2353 -2354 -2355 -2356 -2357 -2358 -2359 -2360 -2361 -2362 -2363
v -2364 -2365 -2366 -2367 -2368 -2369 -2370 -2371 -2372 -2373 -2374 -2375
v -2376 -2377 -2378 -2379 -2380 2381 2382 2383 2384 2385 2386 2387 2388 2389
v 2390 2391 2392 2393 2394 2395 2396 -2397 -2398 -2399 -2400 -2401 -2402 -2403
v -2404 -2405 -2406 -2407 -2408 -2409 -2410 -2411 -2412 -2413 -2414 -2415
v -2416 -2417 -2418 -2419 -2420 -2421 -2422 -2423 -2424 -2425 -2426 -2427
v -2428 -2429 -2430 -2431 -2432 -2433 -2434 -2435 -2436 -2437 -2438 -2439
v -2440 -2441 -2442 -2443 -2444 -2445 -2446 -2447 -2448 -2449 -2450 -2451
v -2452 -2453 -2454 -2455 2456 2457 2458 2459 2460 2461 2462 2463 2464 2465
v 2466 2467 2468 2469 2470 -2471 -2472 -2473 -2474 -2475 -2476 -2477 -2478
v -2479 -2480 -2481 -2482 -2483 -2484 -2485 -2486 -2487 -2488 -2489 -2490
v -2491 -2492 -2493 -2494 -2495 -2496 -2497 -2498 -2499 -2500 -2501 -2502
v -2503 -2504 -2505 -2506 -2507 -2508 -2509 -2510 -2511 -2512 -2513 -2514
v -2515 -2516 -2517 -2518 -2519 -2520 -2521 -2522 -2523 -2524 -2525 -2526
v -2527 -2528 -2529 -2530 -2531 -2532 -2533 -2534 -2535 -2536 -2537 -2538 2539
v 2540 2541 2542 2543 2544 -2545 -2546 -2547 -2548 -2549 -2550 -2551 -2552
v -2553 -2554 -2555 -2556 -2557 -2558 -2559 -2560 -2561 -2562 -2563 -2564
v -2565 -2566 -2567 -2568 -2569 -2570 -2571 -2572 -2573 -2574 -2575 -2576
v -2577 -2578 -2579 -2580 -2581 -2582 -2583 -2584 -2585 -2586 -2587 -2588
v -2589 -2590 -2591 -2592 -2593 -2594 -2595 -2596 -2597 -2598 -2599 -2600
v -2601 -2602 -2603 -2604 -2605 -2606 -2607 -2608 -2609 -2610 -2611 -2612
v -2613 2614 2615 2616 2617 2618 -2619 -2620 -2621 -2622 -2623 -2624 -2625
v -2626 -2627 -2628 -2629 -2630 -2631 -2632 -2633 -2634 -2635 -2636 -2637
v -2638 -2639 -2640 -2641 -2642 -2643 -2644 -2645 -2646 -2647 -2648 -2649
v -2650 -2651 -2652 -2653 -2654 -2655 -2656 -2657 -2658 -2659 -2660 -2661
v -2662 -2663 -2664 -2665 -2666 -2667 -2668 -2669 -2670 -2671 -2672 -2673
v -2674 -2675 -2676 -2677 -2678 -2679 -2680 -2681 -2682 -2683 -2684 -2685
v -2686 -2687 -2688 -2689 -2690 -2691 -2692 0
c 
c --- [ run-time profiling ] -------------------------------------------------
c 
c process time taken by individual solving procedures
c (percentage relative to process time for solving)
c 
c       126.73   98.60% search
c        67.26   52.33% unstable
c        57.09   44.41% stable
c         2.39    1.86% walk
c         1.80    1.40% simplify
c         0.66    0.51% subsume
c         0.43    0.33% vivify
c         0.30    0.23% probe
c         0.12    0.09% ternary
c         0.08    0.06% elim
c         0.00    0.00% parse
c         0.00    0.00% lucky
c   =================================
c       128.53  100.00% solve
c 
c last line shows process time for solving
c (percentage relative to total process time)
c 
c --- [ statistics ] ---------------------------------------------------------
c 
c chronological:            275719        19.27 %  of conflicts
c conflicts:               1431102     11134.36    per second
c decisions:               2527527     19664.85    per second
c eliminated:                 2051        76.19 %  of all variables
c fixed:                        77         2.86 %  of all variables
c learned:                 1405651        98.22 %  per conflict
c learned_lits:           55541096       100.00 %  learned literals
c minimized:                     0         0.00 %  learned literals
c shrunken:               17526182        31.56 %  learned literals
c minishrunken:            5737025        10.33 %  learned literals
c propagations:          117950048         0.92 M  per second
c reduced:                 1134173        79.25 %  per conflict
c rephased:                     53     27001.92    interval
c restarts:                  52057        27.49    interval
c stabilizing:                   5        47.66 %  of conflicts
c subsumed:                 194609         6.84 %  of all clauses
c strengthened:               8973         0.32 %  of all clauses
c ternary:                      27         0.04 %  of resolved
c vivified:                    147         0.01 %  of all clauses
c walked:                       17     84182.47    interval
c weakened:                   8794         2.89    average size
c 
c seconds are measured in process time for solving
c 
c --- [ resources ] ----------------------------------------------------------
c 
c total process time since initialization:       128.54    seconds
c total real time since initialization:          128.57    seconds
c maximum resident set size of process:           28.18    MB
c 
c --- [ shutting down ] ------------------------------------------------------
c 
c exit 10
